param n := 60;
param c := 10000
param : V : p w :=
   0	  78	 485
   1	  65	 256
   2	  27	 259
   3	  38	 491
   4	  62	 251
   5	  35	 258
   6	   9	 353
   7	  46	 312
   8	   4	 335
   9	   8	 498
  10	  57	 250
  11	   9	 252
  12	  23	 361
  13	  74	 293
  14	  85	 346
  15	  60	 378
  16	  38	 252
  17	  88	 370
  18	  56	 451
  19	  92	 256
  20	  29	 293
  21	  28	 439
  22	  24	 269
  23	  63	 292
  24	  17	 453
  25	  41	 263
  26	  72	 284
  27	  45	 398
  28	  95	 259
  29	   2	 343
  30	  20	 391
  31	  74	 255
  32	  45	 354
  33	  91	 462
  34	  12	 252
  35	  99	 286
  36	  12	 363
  37	  92	 254
  38	  32	 383
  39	  24	 381
  40	  97	 278
  41	   2	 341
  42	  86	 454
  43	  84	 251
  44	   7	 295
  45	  36	 356
  46	  58	 283
  47	  50	 361
  48	  43	 453
  49	  88	 272
  50	   8	 275
  51	  55	 357
  52	  96	 275
  53	  82	 368
  54	  52	 468
  55	  82	 250
  56	  42	 282
  57	  75	 352
  58	  91	 280
  59	  17	 368
;

set E :=
   0	   4
   0	  13
   0	  15
   0	  26
   0	  35
   0	  43
   0	  50
   0	  51
   0	  53
   1	   9
   1	  12
   1	  13
   1	  17
   1	  27
   1	  28
   1	  37
   1	  43
   1	  44
   1	  51
   1	  55
   1	  57
   1	  59
   2	  11
   2	  16
   2	  26
   2	  27
   2	  29
   2	  38
   2	  49
   2	  53
   2	  59
   3	   5
   3	   9
   3	  10
   3	  14
   3	  19
   3	  24
   3	  25
   3	  29
   3	  33
   3	  41
   3	  42
   3	  49
   3	  56
   4	   5
   4	   9
   4	  26
   4	  29
   4	  35
   4	  36
   4	  39
   4	  41
   4	  46
   4	  47
   4	  50
   4	  52
   4	  54
   5	  13
   5	  14
   5	  18
   5	  26
   5	  28
   5	  29
   5	  35
   5	  38
   5	  46
   5	  51
   5	  52
   5	  55
   6	   9
   6	  10
   6	  13
   6	  16
   6	  21
   6	  27
   6	  33
   6	  42
   6	  48
   6	  51
   6	  54
   7	   9
   7	  10
   7	  14
   7	  20
   7	  27
   7	  41
   7	  51
   8	   9
   8	  11
   8	  12
   8	  13
   8	  21
   8	  22
   8	  25
   8	  28
   8	  32
   8	  34
   8	  37
   8	  42
   8	  43
   8	  44
   8	  46
   8	  54
   8	  59
   9	  14
   9	  24
   9	  25
   9	  27
   9	  29
   9	  36
   9	  38
   9	  42
   9	  52
   9	  53
   9	  58
  10	  11
  10	  26
  10	  27
  10	  28
  10	  37
  10	  38
  10	  39
  10	  41
  10	  43
  10	  53
  10	  58
  11	  14
  11	  15
  11	  16
  11	  23
  11	  26
  11	  29
  11	  30
  11	  32
  11	  46
  11	  58
  12	  13
  12	  16
  12	  17
  12	  29
  12	  33
  12	  42
  12	  43
  12	  46
  12	  50
  12	  58
  12	  59
  13	  16
  13	  17
  13	  18
  13	  22
  13	  28
  13	  30
  13	  31
  13	  34
  13	  38
  13	  42
  13	  44
  13	  49
  13	  57
  13	  59
  14	  27
  14	  36
  14	  45
  14	  48
  14	  51
  14	  57
  14	  58
  15	  17
  15	  18
  15	  20
  15	  48
  15	  52
  16	  18
  16	  19
  16	  28
  16	  31
  16	  34
  16	  37
  16	  41
  16	  44
  16	  57
  16	  58
  17	  18
  17	  22
  17	  30
  17	  31
  17	  42
  17	  45
  17	  50
  17	  53
  17	  54
  17	  57
  17	  58
  17	  59
  18	  21
  18	  22
  18	  23
  18	  25
  18	  26
  18	  34
  18	  59
  19	  23
  19	  32
  19	  41
  19	  49
  19	  56
  19	  58
  20	  32
  20	  41
  20	  44
  20	  47
  20	  51
  21	  22
  21	  26
  21	  30
  21	  39
  21	  40
  21	  57
  22	  25
  22	  42
  22	  54
  22	  55
  22	  58
  23	  28
  23	  29
  23	  30
  23	  39
  23	  41
  23	  52
  23	  55
  23	  58
  24	  27
  24	  31
  24	  36
  24	  41
  24	  47
  24	  49
  24	  50
  24	  54
  25	  34
  25	  35
  25	  37
  25	  38
  25	  48
  25	  52
  26	  27
  26	  45
  26	  51
  26	  52
  26	  55
  27	  30
  27	  38
  27	  39
  27	  42
  27	  48
  27	  52
  27	  56
  28	  30
  28	  33
  28	  35
  28	  36
  28	  44
  28	  48
  28	  49
  28	  55
  28	  56
  28	  59
  29	  33
  29	  37
  29	  44
  29	  46
  29	  51
  29	  54
  30	  31
  30	  32
  30	  39
  30	  48
  30	  49
  30	  52
  30	  59
  31	  35
  31	  36
  31	  37
  31	  38
  31	  44
  31	  45
  31	  46
  31	  52
  32	  36
  32	  37
  32	  43
  32	  57
  33	  43
  33	  44
  33	  56
  33	  57
  34	  40
  34	  46
  34	  49
  34	  52
  35	  36
  35	  39
  35	  42
  35	  55
  35	  56
  36	  39
  36	  43
  36	  56
  36	  58
  37	  38
  37	  43
  37	  50
  37	  56
  38	  44
  38	  45
  38	  47
  38	  53
  39	  42
  39	  45
  40	  42
  40	  45
  40	  47
  40	  51
  40	  57
  41	  46
  41	  48
  41	  50
  41	  52
  41	  55
  41	  57
  41	  59
  42	  45
  42	  47
  42	  50
  42	  53
  42	  55
  42	  57
  43	  50
  43	  51
  43	  53
  43	  55
  43	  57
  44	  50
  44	  58
  44	  59
  45	  54
  46	  53
  48	  56
  49	  50
  49	  57
  49	  58
  50	  54
  50	  56
  50	  57
  51	  53
  51	  56
  53	  55
  54	  56
  58	  59
;
